# Solution for model Model_1B
# Objective value = 3.6494995965581475e+04
x[0,0] 0
x[0,1] 0
x[0,2] 684
x[0,3] 0
x[0,4] 0
x[0,5] 0
x[0,6] 0
x[0,7] 0
x[0,8] 0
x[0,9] 0
x[0,10] 0
x[0,11] 0
x[0,12] 0
x[0,13] 0
x[0,14] 0
x[0,15] 0
x[0,16] 0
x[0,17] 0
x[0,18] 0
x[0,19] 0
x[1,0] 0
x[1,1] 0
x[1,2] 283
x[1,3] 0
x[1,4] 0
x[1,5] 0
x[1,6] 0
x[1,7] 0
x[1,8] 0
x[1,9] 0
x[1,10] 0
x[1,11] 0
x[1,12] 0
x[1,13] 0
x[1,14] 0
x[1,15] 0
x[1,16] 0
x[1,17] 0
x[1,18] 0
x[1,19] 0
x[2,0] 684
x[2,1] 283
x[2,2] 0
x[2,3] 198
x[2,4] 75
x[2,5] 61
x[2,6] 146
x[2,7] 82
x[2,8] 129
x[2,9] 67
x[2,10] 0
x[2,11] 270
x[2,12] 37
x[2,13] 58
x[2,14] 85
x[2,15] 30
x[2,16] 0
x[2,17] 0
x[2,18] 0
x[2,19] 0
x[3,0] 0
x[3,1] 0
x[3,2] 198
x[3,3] 0
x[3,4] 0
x[3,5] 0
x[3,6] 0
x[3,7] 0
x[3,8] 0
x[3,9] 0
x[3,10] 0
x[3,11] 0
x[3,12] 0
x[3,13] 0
x[3,14] 0
x[3,15] 0
x[3,16] 0
x[3,17] 0
x[3,18] 0
x[3,19] 0
x[4,0] 0
x[4,1] 0
x[4,2] 75
x[4,3] 0
x[4,4] 0
x[4,5] 0
x[4,6] 0
x[4,7] 0
x[4,8] 0
x[4,9] 0
x[4,10] 0
x[4,11] 0
x[4,12] 0
x[4,13] 0
x[4,14] 0
x[4,15] 0
x[4,16] 0
x[4,17] 0
x[4,18] 0
x[4,19] 0
x[5,0] 0
x[5,1] 0
x[5,2] 61
x[5,3] 0
x[5,4] 0
x[5,5] 0
x[5,6] 0
x[5,7] 0
x[5,8] 0
x[5,9] 0
x[5,10] 0
x[5,11] 0
x[5,12] 0
x[5,13] 0
x[5,14] 0
x[5,15] 0
x[5,16] 0
x[5,17] 0
x[5,18] 0
x[5,19] 0
x[6,0] 0
x[6,1] 0
x[6,2] 146
x[6,3] 0
x[6,4] 0
x[6,5] 0
x[6,6] 0
x[6,7] 0
x[6,8] 0
x[6,9] 0
x[6,10] 0
x[6,11] 0
x[6,12] 0
x[6,13] 0
x[6,14] 0
x[6,15] 0
x[6,16] 0
x[6,17] 0
x[6,18] 0
x[6,19] 0
x[7,0] 0
x[7,1] 0
x[7,2] 82
x[7,3] 0
x[7,4] 0
x[7,5] 0
x[7,6] 0
x[7,7] 0
x[7,8] 0
x[7,9] 0
x[7,10] 0
x[7,11] 0
x[7,12] 0
x[7,13] 0
x[7,14] 0
x[7,15] 0
x[7,16] 0
x[7,17] 0
x[7,18] 0
x[7,19] 0
x[8,0] 0
x[8,1] 0
x[8,2] 129
x[8,3] 0
x[8,4] 0
x[8,5] 0
x[8,6] 0
x[8,7] 0
x[8,8] 0
x[8,9] 0
x[8,10] 0
x[8,11] 0
x[8,12] 0
x[8,13] 0
x[8,14] 0
x[8,15] 0
x[8,16] 0
x[8,17] 0
x[8,18] 0
x[8,19] 0
x[9,0] 0
x[9,1] 0
x[9,2] 67
x[9,3] 0
x[9,4] 0
x[9,5] 0
x[9,6] 0
x[9,7] 0
x[9,8] 0
x[9,9] 0
x[9,10] 0
x[9,11] 0
x[9,12] 0
x[9,13] 0
x[9,14] 0
x[9,15] 0
x[9,16] 0
x[9,17] 0
x[9,18] 0
x[9,19] 0
x[10,0] 0
x[10,1] 0
x[10,2] 0
x[10,3] 0
x[10,4] 0
x[10,5] 0
x[10,6] 0
x[10,7] 0
x[10,8] 0
x[10,9] 0
x[10,10] 0
x[10,11] 0
x[10,12] 0
x[10,13] 0
x[10,14] 0
x[10,15] 0
x[10,16] 0
x[10,17] 0
x[10,18] 0
x[10,19] 0
x[11,0] 0
x[11,1] 0
x[11,2] 270
x[11,3] 0
x[11,4] 0
x[11,5] 0
x[11,6] 0
x[11,7] 0
x[11,8] 0
x[11,9] 0
x[11,10] 0
x[11,11] 0
x[11,12] 0
x[11,13] 0
x[11,14] 0
x[11,15] 0
x[11,16] 0
x[11,17] 0
x[11,18] 0
x[11,19] 0
x[12,0] 0
x[12,1] 0
x[12,2] 37
x[12,3] 0
x[12,4] 0
x[12,5] 0
x[12,6] 0
x[12,7] 0
x[12,8] 0
x[12,9] 0
x[12,10] 0
x[12,11] 0
x[12,12] 0
x[12,13] 0
x[12,14] 0
x[12,15] 0
x[12,16] 0
x[12,17] 0
x[12,18] 0
x[12,19] 0
x[13,0] 0
x[13,1] 0
x[13,2] 58
x[13,3] 0
x[13,4] 0
x[13,5] 0
x[13,6] 0
x[13,7] 0
x[13,8] 0
x[13,9] 0
x[13,10] 0
x[13,11] 0
x[13,12] 0
x[13,13] 0
x[13,14] 0
x[13,15] 0
x[13,16] 0
x[13,17] 0
x[13,18] 0
x[13,19] 0
x[14,0] 0
x[14,1] 0
x[14,2] 85
x[14,3] 0
x[14,4] 0
x[14,5] 0
x[14,6] 0
x[14,7] 0
x[14,8] 0
x[14,9] 0
x[14,10] 0
x[14,11] 0
x[14,12] 0
x[14,13] 0
x[14,14] 0
x[14,15] 0
x[14,16] 0
x[14,17] 0
x[14,18] 0
x[14,19] 0
x[15,0] 0
x[15,1] 0
x[15,2] 30
x[15,3] 0
x[15,4] 0
x[15,5] 0
x[15,6] 0
x[15,7] 0
x[15,8] 0
x[15,9] 0
x[15,10] 0
x[15,11] 0
x[15,12] 0
x[15,13] 0
x[15,14] 0
x[15,15] 0
x[15,16] 0
x[15,17] 0
x[15,18] 0
x[15,19] 0
x[16,0] 0
x[16,1] 0
x[16,2] 0
x[16,3] 0
x[16,4] 0
x[16,5] 0
x[16,6] 0
x[16,7] 0
x[16,8] 0
x[16,9] 0
x[16,10] 0
x[16,11] 0
x[16,12] 0
x[16,13] 0
x[16,14] 0
x[16,15] 0
x[16,16] 0
x[16,17] 0
x[16,18] 0
x[16,19] 0
x[17,0] 0
x[17,1] 0
x[17,2] 0
x[17,3] 0
x[17,4] 0
x[17,5] 0
x[17,6] 0
x[17,7] 0
x[17,8] 0
x[17,9] 0
x[17,10] 0
x[17,11] 0
x[17,12] 0
x[17,13] 0
x[17,14] 0
x[17,15] 0
x[17,16] 0
x[17,17] 0
x[17,18] 0
x[17,19] 0
x[18,0] 0
x[18,1] 0
x[18,2] 0
x[18,3] 0
x[18,4] 0
x[18,5] 0
x[18,6] 0
x[18,7] 0
x[18,8] 0
x[18,9] 0
x[18,10] 0
x[18,11] 0
x[18,12] 0
x[18,13] 0
x[18,14] 0
x[18,15] 0
x[18,16] 0
x[18,17] 0
x[18,18] 0
x[18,19] 0
x[19,0] 0
x[19,1] 0
x[19,2] 0
x[19,3] 0
x[19,4] 0
x[19,5] 0
x[19,6] 0
x[19,7] 0
x[19,8] 0
x[19,9] 0
x[19,10] 0
x[19,11] 0
x[19,12] 0
x[19,13] 0
x[19,14] 0
x[19,15] 0
x[19,16] 0
x[19,17] 0
x[19,18] 0
x[19,19] 0
w[0,0] 0
w[0,1] 0
w[0,2] 0
w[0,3] 0
w[0,4] 0
w[0,5] 0
w[0,6] 0
w[0,7] 0
w[0,8] 0
w[0,9] 0
w[0,10] 0
w[0,11] 0
w[0,12] 8
w[0,13] 0
w[0,14] 0
w[0,15] 39
w[0,16] 0
w[0,17] 0
w[0,18] 0
w[0,19] 0
w[1,0] 0
w[1,1] 0
w[1,2] 0
w[1,3] 0
w[1,4] 0
w[1,5] 0
w[1,6] 0
w[1,7] 0
w[1,8] 0
w[1,9] 0
w[1,10] 0
w[1,11] 0
w[1,12] 9
w[1,13] 0
w[1,14] 0
w[1,15] 0
w[1,16] 0
w[1,17] 0
w[1,18] 0
w[1,19] 0
w[2,0] 0
w[2,1] 0
w[2,2] 0
w[2,3] 0
w[2,4] 0
w[2,5] 0
w[2,6] 0
w[2,7] 0
w[2,8] 0
w[2,9] 0
w[2,10] 0
w[2,11] 0
w[2,12] 0
w[2,13] 0
w[2,14] 0
w[2,15] 0
w[2,16] 0
w[2,17] 0
w[2,18] 0
w[2,19] 0
w[3,0] 0
w[3,1] 0
w[3,2] 0
w[3,3] 0
w[3,4] 0
w[3,5] 0
w[3,6] 0
w[3,7] 0
w[3,8] 0
w[3,9] 0
w[3,10] 0
w[3,11] 0
w[3,12] 0
w[3,13] 0
w[3,14] 38
w[3,15] 0
w[3,16] 0
w[3,17] 0
w[3,18] 0
w[3,19] 0
w[4,0] 0
w[4,1] 0
w[4,2] 0
w[4,3] 0
w[4,4] 0
w[4,5] 0
w[4,6] 0
w[4,7] 0
w[4,8] 0
w[4,9] 12
w[4,10] 0
w[4,11] 0
w[4,12] 25
w[4,13] 0
w[4,14] 0
w[4,15] 0
w[4,16] 0
w[4,17] 0
w[4,18] 0
w[4,19] 0
w[5,0] 0
w[5,1] 0
w[5,2] 0
w[5,3] 0
w[5,4] 0
w[5,5] 0
w[5,6] 0
w[5,7] 0
w[5,8] 0
w[5,9] 33
w[5,10] 0
w[5,11] 0
w[5,12] 18
w[5,13] 0
w[5,14] 0
w[5,15] 0
w[5,16] 0
w[5,17] 0
w[5,18] 0
w[5,19] 0
w[6,0] 0
w[6,1] 0
w[6,2] 0
w[6,3] 0
w[6,4] 0
w[6,5] 0
w[6,6] 0
w[6,7] 0
w[6,8] 0
w[6,9] 0
w[6,10] 0
w[6,11] 0
w[6,12] 0
w[6,13] 0
w[6,14] 0
w[6,15] 0
w[6,16] 0
w[6,17] 0
w[6,18] 0
w[6,19] 0
w[7,0] 0
w[7,1] 0
w[7,2] 0
w[7,3] 0
w[7,4] 0
w[7,5] 0
w[7,6] 0
w[7,7] 0
w[7,8] 0
w[7,9] 0
w[7,10] 0
w[7,11] 0
w[7,12] 0
w[7,13] 0
w[7,14] 30
w[7,15] 0
w[7,16] 0
w[7,17] 0
w[7,18] 0
w[7,19] 0
w[8,0] 0
w[8,1] 0
w[8,2] 0
w[8,3] 11
w[8,4] 0
w[8,5] 0
w[8,6] 0
w[8,7] 0
w[8,8] 0
w[8,9] 0
w[8,10] 0
w[8,11] 0
w[8,12] 15
w[8,13] 43
w[8,14] 0
w[8,15] 27
w[8,16] 0
w[8,17] 0
w[8,18] 0
w[8,19] 0
w[9,0] 0
w[9,1] 0
w[9,2] 0
w[9,3] 0
w[9,4] 12
w[9,5] 33
w[9,6] 0
w[9,7] 0
w[9,8] 0
w[9,9] 0
w[9,10] 0
w[9,11] 0
w[9,12] 0
w[9,13] 0
w[9,14] 0
w[9,15] 0
w[9,16] 0
w[9,17] 0
w[9,18] 0
w[9,19] 0
w[10,0] 0
w[10,1] 0
w[10,2] 0
w[10,3] 0
w[10,4] 0
w[10,5] 0
w[10,6] 0
w[10,7] 0
w[10,8] 0
w[10,9] 0
w[10,10] 0
w[10,11] 0
w[10,12] 0
w[10,13] 0
w[10,14] 0
w[10,15] 0
w[10,16] 0
w[10,17] 0
w[10,18] 0
w[10,19] 0
w[11,0] 0
w[11,1] 0
w[11,2] 0
w[11,3] 0
w[11,4] 0
w[11,5] 0
w[11,6] 0
w[11,7] 0
w[11,8] 0
w[11,9] 0
w[11,10] 0
w[11,11] 0
w[11,12] 0
w[11,13] 0
w[11,14] 0
w[11,15] 0
w[11,16] 0
w[11,17] 0
w[11,18] 0
w[11,19] 0
w[12,0] 8
w[12,1] 9
w[12,2] 0
w[12,3] 0
w[12,4] 25
w[12,5] 7
w[12,6] 0
w[12,7] 0
w[12,8] 26
w[12,9] 0
w[12,10] 0
w[12,11] 0
w[12,12] 0
w[12,13] 0
w[12,14] 0
w[12,15] 0
w[12,16] 0
w[12,17] 0
w[12,18] 0
w[12,19] 0
w[13,0] 0
w[13,1] 0
w[13,2] 0
w[13,3] 0
w[13,4] 0
w[13,5] 0
w[13,6] 0
w[13,7] 0
w[13,8] 43
w[13,9] 0
w[13,10] 0
w[13,11] 0
w[13,12] 0
w[13,13] 0
w[13,14] 11
w[13,15] 0
w[13,16] 0
w[13,17] 0
w[13,18] 0
w[13,19] 0
w[14,0] 0
w[14,1] 0
w[14,2] 0
w[14,3] 27
w[14,4] 0
w[14,5] 11
w[14,6] 0
w[14,7] 30
w[14,8] 0
w[14,9] 0
w[14,10] 0
w[14,11] 0
w[14,12] 0
w[14,13] 11
w[14,14] 0
w[14,15] 16
w[14,16] 0
w[14,17] 0
w[14,18] 0
w[14,19] 0
w[15,0] 39
w[15,1] 0
w[15,2] 0
w[15,3] 0
w[15,4] 0
w[15,5] 0
w[15,6] 0
w[15,7] 0
w[15,8] 27
w[15,9] 0
w[15,10] 0
w[15,11] 0
w[15,12] 0
w[15,13] 0
w[15,14] 16
w[15,15] 0
w[15,16] 0
w[15,17] 0
w[15,18] 0
w[15,19] 0
w[16,0] 0
w[16,1] 0
w[16,2] 0
w[16,3] 0
w[16,4] 0
w[16,5] 0
w[16,6] 0
w[16,7] 0
w[16,8] 0
w[16,9] 0
w[16,10] 0
w[16,11] 0
w[16,12] 0
w[16,13] 0
w[16,14] 0
w[16,15] 0
w[16,16] 0
w[16,17] 0
w[16,18] 0
w[16,19] 0
w[17,0] 0
w[17,1] 0
w[17,2] 0
w[17,3] 0
w[17,4] 0
w[17,5] 0
w[17,6] 0
w[17,7] 0
w[17,8] 0
w[17,9] 0
w[17,10] 0
w[17,11] 0
w[17,12] 0
w[17,13] 0
w[17,14] 0
w[17,15] 0
w[17,16] 0
w[17,17] 0
w[17,18] 0
w[17,19] 0
w[18,0] 0
w[18,1] 0
w[18,2] 0
w[18,3] 0
w[18,4] 0
w[18,5] 0
w[18,6] 0
w[18,7] 0
w[18,8] 0
w[18,9] 0
w[18,10] 0
w[18,11] 0
w[18,12] 0
w[18,13] 0
w[18,14] 0
w[18,15] 0
w[18,16] 0
w[18,17] 0
w[18,18] 0
w[18,19] 0
w[19,0] 0
w[19,1] 0
w[19,2] 0
w[19,3] 0
w[19,4] 0
w[19,5] 0
w[19,6] 0
w[19,7] 0
w[19,8] 0
w[19,9] 0
w[19,10] 0
w[19,11] 0
w[19,12] 0
w[19,13] 0
w[19,14] 0
w[19,15] 0
w[19,16] 0
w[19,17] 0
w[19,18] 0
w[19,19] 0
z[0,0,0] 0
z[0,0,1] 0
z[0,0,2] 0
z[0,0,3] 0
z[0,1,0] 0
z[0,1,1] 0
z[0,1,2] 0
z[0,1,3] 0
z[0,2,0] 5
z[0,2,1] 0
z[0,2,2] 5
z[0,2,3] 0
z[0,3,0] 0
z[0,3,1] 0
z[0,3,2] 0
z[0,3,3] 0
z[0,4,0] 0
z[0,4,1] 0
z[0,4,2] 0
z[0,4,3] 0
z[0,5,0] 0
z[0,5,1] 0
z[0,5,2] 0
z[0,5,3] 0
z[0,6,0] 0
z[0,6,1] 0
z[0,6,2] 0
z[0,6,3] 0
z[0,7,0] 0
z[0,7,1] 0
z[0,7,2] 0
z[0,7,3] 0
z[0,8,0] 0
z[0,8,1] 0
z[0,8,2] 0
z[0,8,3] 0
z[0,9,0] 0
z[0,9,1] 0
z[0,9,2] 0
z[0,9,3] 0
z[0,10,0] 0
z[0,10,1] 0
z[0,10,2] 0
z[0,10,3] 0
z[0,11,0] 0
z[0,11,1] 0
z[0,11,2] 0
z[0,11,3] 0
z[0,12,0] 0
z[0,12,1] 0
z[0,12,2] 0
z[0,12,3] 0
z[0,13,0] 0
z[0,13,1] 0
z[0,13,2] 0
z[0,13,3] 0
z[0,14,0] 0
z[0,14,1] 0
z[0,14,2] 0
z[0,14,3] 0
z[0,15,0] 0
z[0,15,1] 0
z[0,15,2] 0
z[0,15,3] 0
z[0,16,0] 0
z[0,16,1] 0
z[0,16,2] 0
z[0,16,3] 0
z[0,17,0] 0
z[0,17,1] 0
z[0,17,2] 0
z[0,17,3] 0
z[0,18,0] 0
z[0,18,1] 0
z[0,18,2] 0
z[0,18,3] 0
z[0,19,0] 0
z[0,19,1] 0
z[0,19,2] 0
z[0,19,3] 0
z[1,0,0] 0
z[1,0,1] 0
z[1,0,2] 0
z[1,0,3] 0
z[1,1,0] 0
z[1,1,1] 0
z[1,1,2] 0
z[1,1,3] 0
z[1,2,0] 2
z[1,2,1] 0
z[1,2,2] 2
z[1,2,3] 0
z[1,3,0] 0
z[1,3,1] 0
z[1,3,2] 0
z[1,3,3] 0
z[1,4,0] 0
z[1,4,1] 0
z[1,4,2] 0
z[1,4,3] 0
z[1,5,0] 0
z[1,5,1] 0
z[1,5,2] 0
z[1,5,3] 0
z[1,6,0] 0
z[1,6,1] 0
z[1,6,2] 0
z[1,6,3] 0
z[1,7,0] 0
z[1,7,1] 0
z[1,7,2] 0
z[1,7,3] 0
z[1,8,0] 0
z[1,8,1] 0
z[1,8,2] 0
z[1,8,3] 0
z[1,9,0] 0
z[1,9,1] 0
z[1,9,2] 0
z[1,9,3] 0
z[1,10,0] 0
z[1,10,1] 0
z[1,10,2] 0
z[1,10,3] 0
z[1,11,0] 0
z[1,11,1] 0
z[1,11,2] 0
z[1,11,3] 0
z[1,12,0] 0
z[1,12,1] 0
z[1,12,2] 0
z[1,12,3] 0
z[1,13,0] 0
z[1,13,1] 0
z[1,13,2] 0
z[1,13,3] 0
z[1,14,0] 0
z[1,14,1] 0
z[1,14,2] 0
z[1,14,3] 0
z[1,15,0] 0
z[1,15,1] 0
z[1,15,2] 0
z[1,15,3] 0
z[1,16,0] 0
z[1,16,1] 0
z[1,16,2] 0
z[1,16,3] 0
z[1,17,0] 0
z[1,17,1] 0
z[1,17,2] 0
z[1,17,3] 0
z[1,18,0] 0
z[1,18,1] 0
z[1,18,2] 0
z[1,18,3] 0
z[1,19,0] 0
z[1,19,1] 0
z[1,19,2] 0
z[1,19,3] 0
z[2,0,0] 5
z[2,0,1] 0
z[2,0,2] 5
z[2,0,3] 0
z[2,1,0] 2
z[2,1,1] 0
z[2,1,2] 2
z[2,1,3] 0
z[2,2,0] 0
z[2,2,1] 0
z[2,2,2] 0
z[2,2,3] 0
z[2,3,0] 7
z[2,3,1] 0
z[2,3,2] 0
z[2,3,3] 0
z[2,4,0] 0
z[2,4,1] 0
z[2,4,2] 1
z[2,4,3] 0
z[2,5,0] 0
z[2,5,1] 0
z[2,5,2] 1
z[2,5,3] 0
z[2,6,0] 1
z[2,6,1] 0
z[2,6,2] 1
z[2,6,3] 0
z[2,7,0] 0
z[2,7,1] 0
z[2,7,2] 1
z[2,7,3] 0
z[2,8,0] 0
z[2,8,1] 0
z[2,8,2] 2
z[2,8,3] 0
z[2,9,0] 0
z[2,9,1] 0
z[2,9,2] 1
z[2,9,3] 0
z[2,10,0] 0
z[2,10,1] 0
z[2,10,2] 0
z[2,10,3] 0
z[2,11,0] 8
z[2,11,1] 0
z[2,11,2] 0
z[2,11,3] 0
z[2,12,0] 0
z[2,12,1] 0
z[2,12,2] 1
z[2,12,3] 0
z[2,13,0] 0
z[2,13,1] 0
z[2,13,2] 1
z[2,13,3] 0
z[2,14,0] 2
z[2,14,1] 0
z[2,14,2] 1
z[2,14,3] 0
z[2,15,0] 0
z[2,15,1] 0
z[2,15,2] 1
z[2,15,3] 0
z[2,16,0] 0
z[2,16,1] 0
z[2,16,2] 0
z[2,16,3] 0
z[2,17,0] 0
z[2,17,1] 0
z[2,17,2] 0
z[2,17,3] 0
z[2,18,0] 0
z[2,18,1] 0
z[2,18,2] 0
z[2,18,3] 0
z[2,19,0] 0
z[2,19,1] 0
z[2,19,2] 0
z[2,19,3] 0
z[3,0,0] 0
z[3,0,1] 0
z[3,0,2] 0
z[3,0,3] 0
z[3,1,0] 0
z[3,1,1] 0
z[3,1,2] 0
z[3,1,3] 0
z[3,2,0] 7
z[3,2,1] 0
z[3,2,2] 0
z[3,2,3] 0
z[3,3,0] 0
z[3,3,1] 0
z[3,3,2] 0
z[3,3,3] 0
z[3,4,0] 0
z[3,4,1] 0
z[3,4,2] 0
z[3,4,3] 0
z[3,5,0] 0
z[3,5,1] 0
z[3,5,2] 0
z[3,5,3] 0
z[3,6,0] 0
z[3,6,1] 0
z[3,6,2] 0
z[3,6,3] 0
z[3,7,0] 0
z[3,7,1] 0
z[3,7,2] 0
z[3,7,3] 0
z[3,8,0] 0
z[3,8,1] 0
z[3,8,2] 0
z[3,8,3] 0
z[3,9,0] 0
z[3,9,1] 0
z[3,9,2] 0
z[3,9,3] 0
z[3,10,0] 0
z[3,10,1] 0
z[3,10,2] 0
z[3,10,3] 0
z[3,11,0] 0
z[3,11,1] 0
z[3,11,2] 0
z[3,11,3] 0
z[3,12,0] 0
z[3,12,1] 0
z[3,12,2] 0
z[3,12,3] 0
z[3,13,0] 0
z[3,13,1] 0
z[3,13,2] 0
z[3,13,3] 0
z[3,14,0] 0
z[3,14,1] 0
z[3,14,2] 0
z[3,14,3] 0
z[3,15,0] 0
z[3,15,1] 0
z[3,15,2] 0
z[3,15,3] 0
z[3,16,0] 0
z[3,16,1] 0
z[3,16,2] 0
z[3,16,3] 0
z[3,17,0] 0
z[3,17,1] 0
z[3,17,2] 0
z[3,17,3] 0
z[3,18,0] 0
z[3,18,1] 0
z[3,18,2] 0
z[3,18,3] 0
z[3,19,0] 0
z[3,19,1] 0
z[3,19,2] 0
z[3,19,3] 0
z[4,0,0] 0
z[4,0,1] 0
z[4,0,2] 0
z[4,0,3] 0
z[4,1,0] 0
z[4,1,1] 0
z[4,1,2] 0
z[4,1,3] 0
z[4,2,0] 0
z[4,2,1] 0
z[4,2,2] 1
z[4,2,3] 0
z[4,3,0] 0
z[4,3,1] 0
z[4,3,2] 0
z[4,3,3] 0
z[4,4,0] 0
z[4,4,1] 0
z[4,4,2] 0
z[4,4,3] 0
z[4,5,0] 0
z[4,5,1] 0
z[4,5,2] 0
z[4,5,3] 0
z[4,6,0] 0
z[4,6,1] 0
z[4,6,2] 0
z[4,6,3] 0
z[4,7,0] 0
z[4,7,1] 0
z[4,7,2] 0
z[4,7,3] 0
z[4,8,0] 0
z[4,8,1] 0
z[4,8,2] 0
z[4,8,3] 0
z[4,9,0] 0
z[4,9,1] 0
z[4,9,2] 0
z[4,9,3] 0
z[4,10,0] 0
z[4,10,1] 0
z[4,10,2] 0
z[4,10,3] 0
z[4,11,0] 0
z[4,11,1] 0
z[4,11,2] 0
z[4,11,3] 0
z[4,12,0] 0
z[4,12,1] 0
z[4,12,2] 0
z[4,12,3] 0
z[4,13,0] 0
z[4,13,1] 0
z[4,13,2] 0
z[4,13,3] 0
z[4,14,0] 0
z[4,14,1] 0
z[4,14,2] 0
z[4,14,3] 0
z[4,15,0] 0
z[4,15,1] 0
z[4,15,2] 0
z[4,15,3] 0
z[4,16,0] 0
z[4,16,1] 0
z[4,16,2] 0
z[4,16,3] 0
z[4,17,0] 0
z[4,17,1] 0
z[4,17,2] 0
z[4,17,3] 0
z[4,18,0] 0
z[4,18,1] 0
z[4,18,2] 0
z[4,18,3] 0
z[4,19,0] 0
z[4,19,1] 0
z[4,19,2] 0
z[4,19,3] 0
z[5,0,0] 0
z[5,0,1] 0
z[5,0,2] 0
z[5,0,3] 0
z[5,1,0] 0
z[5,1,1] 0
z[5,1,2] 0
z[5,1,3] 0
z[5,2,0] 0
z[5,2,1] 0
z[5,2,2] 1
z[5,2,3] 0
z[5,3,0] 0
z[5,3,1] 0
z[5,3,2] 0
z[5,3,3] 0
z[5,4,0] 0
z[5,4,1] 0
z[5,4,2] 0
z[5,4,3] 0
z[5,5,0] 0
z[5,5,1] 0
z[5,5,2] 0
z[5,5,3] 0
z[5,6,0] 0
z[5,6,1] 0
z[5,6,2] 0
z[5,6,3] 0
z[5,7,0] 0
z[5,7,1] 0
z[5,7,2] 0
z[5,7,3] 0
z[5,8,0] 0
z[5,8,1] 0
z[5,8,2] 0
z[5,8,3] 0
z[5,9,0] 0
z[5,9,1] 0
z[5,9,2] 0
z[5,9,3] 0
z[5,10,0] 0
z[5,10,1] 0
z[5,10,2] 0
z[5,10,3] 0
z[5,11,0] 0
z[5,11,1] 0
z[5,11,2] 0
z[5,11,3] 0
z[5,12,0] 0
z[5,12,1] 0
z[5,12,2] 0
z[5,12,3] 0
z[5,13,0] 0
z[5,13,1] 0
z[5,13,2] 0
z[5,13,3] 0
z[5,14,0] 0
z[5,14,1] 0
z[5,14,2] 0
z[5,14,3] 0
z[5,15,0] 0
z[5,15,1] 0
z[5,15,2] 0
z[5,15,3] 0
z[5,16,0] 0
z[5,16,1] 0
z[5,16,2] 0
z[5,16,3] 0
z[5,17,0] 0
z[5,17,1] 0
z[5,17,2] 0
z[5,17,3] 0
z[5,18,0] 0
z[5,18,1] 0
z[5,18,2] 0
z[5,18,3] 0
z[5,19,0] 0
z[5,19,1] 0
z[5,19,2] 0
z[5,19,3] 0
z[6,0,0] 0
z[6,0,1] 0
z[6,0,2] 0
z[6,0,3] 0
z[6,1,0] 0
z[6,1,1] 0
z[6,1,2] 0
z[6,1,3] 0
z[6,2,0] 1
z[6,2,1] 0
z[6,2,2] 1
z[6,2,3] 0
z[6,3,0] 0
z[6,3,1] 0
z[6,3,2] 0
z[6,3,3] 0
z[6,4,0] 0
z[6,4,1] 0
z[6,4,2] 0
z[6,4,3] 0
z[6,5,0] 0
z[6,5,1] 0
z[6,5,2] 0
z[6,5,3] 0
z[6,6,0] 0
z[6,6,1] 0
z[6,6,2] 0
z[6,6,3] 0
z[6,7,0] 0
z[6,7,1] 0
z[6,7,2] 0
z[6,7,3] 0
z[6,8,0] 0
z[6,8,1] 0
z[6,8,2] 0
z[6,8,3] 0
z[6,9,0] 0
z[6,9,1] 0
z[6,9,2] 0
z[6,9,3] 0
z[6,10,0] 0
z[6,10,1] 0
z[6,10,2] 0
z[6,10,3] 0
z[6,11,0] 0
z[6,11,1] 0
z[6,11,2] 0
z[6,11,3] 0
z[6,12,0] 0
z[6,12,1] 0
z[6,12,2] 0
z[6,12,3] 0
z[6,13,0] 0
z[6,13,1] 0
z[6,13,2] 0
z[6,13,3] 0
z[6,14,0] 0
z[6,14,1] 0
z[6,14,2] 0
z[6,14,3] 0
z[6,15,0] 0
z[6,15,1] 0
z[6,15,2] 0
z[6,15,3] 0
z[6,16,0] 0
z[6,16,1] 0
z[6,16,2] 0
z[6,16,3] 0
z[6,17,0] 0
z[6,17,1] 0
z[6,17,2] 0
z[6,17,3] 0
z[6,18,0] 0
z[6,18,1] 0
z[6,18,2] 0
z[6,18,3] 0
z[6,19,0] 0
z[6,19,1] 0
z[6,19,2] 0
z[6,19,3] 0
z[7,0,0] 0
z[7,0,1] 0
z[7,0,2] 0
z[7,0,3] 0
z[7,1,0] 0
z[7,1,1] 0
z[7,1,2] 0
z[7,1,3] 0
z[7,2,0] 0
z[7,2,1] 0
z[7,2,2] 1
z[7,2,3] 0
z[7,3,0] 0
z[7,3,1] 0
z[7,3,2] 0
z[7,3,3] 0
z[7,4,0] 0
z[7,4,1] 0
z[7,4,2] 0
z[7,4,3] 0
z[7,5,0] 0
z[7,5,1] 0
z[7,5,2] 0
z[7,5,3] 0
z[7,6,0] 0
z[7,6,1] 0
z[7,6,2] 0
z[7,6,3] 0
z[7,7,0] 0
z[7,7,1] 0
z[7,7,2] 0
z[7,7,3] 0
z[7,8,0] 0
z[7,8,1] 0
z[7,8,2] 0
z[7,8,3] 0
z[7,9,0] 0
z[7,9,1] 0
z[7,9,2] 0
z[7,9,3] 0
z[7,10,0] 0
z[7,10,1] 0
z[7,10,2] 0
z[7,10,3] 0
z[7,11,0] 0
z[7,11,1] 0
z[7,11,2] 0
z[7,11,3] 0
z[7,12,0] 0
z[7,12,1] 0
z[7,12,2] 0
z[7,12,3] 0
z[7,13,0] 0
z[7,13,1] 0
z[7,13,2] 0
z[7,13,3] 0
z[7,14,0] 0
z[7,14,1] 0
z[7,14,2] 0
z[7,14,3] 0
z[7,15,0] 0
z[7,15,1] 0
z[7,15,2] 0
z[7,15,3] 0
z[7,16,0] 0
z[7,16,1] 0
z[7,16,2] 0
z[7,16,3] 0
z[7,17,0] 0
z[7,17,1] 0
z[7,17,2] 0
z[7,17,3] 0
z[7,18,0] 0
z[7,18,1] 0
z[7,18,2] 0
z[7,18,3] 0
z[7,19,0] 0
z[7,19,1] 0
z[7,19,2] 0
z[7,19,3] 0
z[8,0,0] 0
z[8,0,1] 0
z[8,0,2] 0
z[8,0,3] 0
z[8,1,0] 0
z[8,1,1] 0
z[8,1,2] 0
z[8,1,3] 0
z[8,2,0] 0
z[8,2,1] 0
z[8,2,2] 2
z[8,2,3] 0
z[8,3,0] 0
z[8,3,1] 0
z[8,3,2] 0
z[8,3,3] 0
z[8,4,0] 0
z[8,4,1] 0
z[8,4,2] 0
z[8,4,3] 0
z[8,5,0] 0
z[8,5,1] 0
z[8,5,2] 0
z[8,5,3] 0
z[8,6,0] 0
z[8,6,1] 0
z[8,6,2] 0
z[8,6,3] 0
z[8,7,0] 0
z[8,7,1] 0
z[8,7,2] 0
z[8,7,3] 0
z[8,8,0] 0
z[8,8,1] 0
z[8,8,2] 0
z[8,8,3] 0
z[8,9,0] 0
z[8,9,1] 0
z[8,9,2] 0
z[8,9,3] 0
z[8,10,0] 0
z[8,10,1] 0
z[8,10,2] 0
z[8,10,3] 0
z[8,11,0] 0
z[8,11,1] 0
z[8,11,2] 0
z[8,11,3] 0
z[8,12,0] 0
z[8,12,1] 0
z[8,12,2] 0
z[8,12,3] 0
z[8,13,0] 0
z[8,13,1] 0
z[8,13,2] 0
z[8,13,3] 0
z[8,14,0] 0
z[8,14,1] 0
z[8,14,2] 0
z[8,14,3] 0
z[8,15,0] 0
z[8,15,1] 0
z[8,15,2] 0
z[8,15,3] 0
z[8,16,0] 0
z[8,16,1] 0
z[8,16,2] 0
z[8,16,3] 0
z[8,17,0] 0
z[8,17,1] 0
z[8,17,2] 0
z[8,17,3] 0
z[8,18,0] 0
z[8,18,1] 0
z[8,18,2] 0
z[8,18,3] 0
z[8,19,0] 0
z[8,19,1] 0
z[8,19,2] 0
z[8,19,3] 0
z[9,0,0] 0
z[9,0,1] 0
z[9,0,2] 0
z[9,0,3] 0
z[9,1,0] 0
z[9,1,1] 0
z[9,1,2] 0
z[9,1,3] 0
z[9,2,0] 0
z[9,2,1] 0
z[9,2,2] 1
z[9,2,3] 0
z[9,3,0] 0
z[9,3,1] 0
z[9,3,2] 0
z[9,3,3] 0
z[9,4,0] 0
z[9,4,1] 0
z[9,4,2] 0
z[9,4,3] 0
z[9,5,0] 0
z[9,5,1] 0
z[9,5,2] 0
z[9,5,3] 0
z[9,6,0] 0
z[9,6,1] 0
z[9,6,2] 0
z[9,6,3] 0
z[9,7,0] 0
z[9,7,1] 0
z[9,7,2] 0
z[9,7,3] 0
z[9,8,0] 0
z[9,8,1] 0
z[9,8,2] 0
z[9,8,3] 0
z[9,9,0] 0
z[9,9,1] 0
z[9,9,2] 0
z[9,9,3] 0
z[9,10,0] 0
z[9,10,1] 0
z[9,10,2] 0
z[9,10,3] 0
z[9,11,0] 0
z[9,11,1] 0
z[9,11,2] 0
z[9,11,3] 0
z[9,12,0] 0
z[9,12,1] 0
z[9,12,2] 0
z[9,12,3] 0
z[9,13,0] 0
z[9,13,1] 0
z[9,13,2] 0
z[9,13,3] 0
z[9,14,0] 0
z[9,14,1] 0
z[9,14,2] 0
z[9,14,3] 0
z[9,15,0] 0
z[9,15,1] 0
z[9,15,2] 0
z[9,15,3] 0
z[9,16,0] 0
z[9,16,1] 0
z[9,16,2] 0
z[9,16,3] 0
z[9,17,0] 0
z[9,17,1] 0
z[9,17,2] 0
z[9,17,3] 0
z[9,18,0] 0
z[9,18,1] 0
z[9,18,2] 0
z[9,18,3] 0
z[9,19,0] 0
z[9,19,1] 0
z[9,19,2] 0
z[9,19,3] 0
z[10,0,0] 0
z[10,0,1] 0
z[10,0,2] 0
z[10,0,3] 0
z[10,1,0] 0
z[10,1,1] 0
z[10,1,2] 0
z[10,1,3] 0
z[10,2,0] 0
z[10,2,1] 0
z[10,2,2] 0
z[10,2,3] 0
z[10,3,0] 0
z[10,3,1] 0
z[10,3,2] 0
z[10,3,3] 0
z[10,4,0] 0
z[10,4,1] 0
z[10,4,2] 0
z[10,4,3] 0
z[10,5,0] 0
z[10,5,1] 0
z[10,5,2] 0
z[10,5,3] 0
z[10,6,0] 0
z[10,6,1] 0
z[10,6,2] 0
z[10,6,3] 0
z[10,7,0] 0
z[10,7,1] 0
z[10,7,2] 0
z[10,7,3] 0
z[10,8,0] 0
z[10,8,1] 0
z[10,8,2] 0
z[10,8,3] 0
z[10,9,0] 0
z[10,9,1] 0
z[10,9,2] 0
z[10,9,3] 0
z[10,10,0] 0
z[10,10,1] 0
z[10,10,2] 0
z[10,10,3] 0
z[10,11,0] 0
z[10,11,1] 0
z[10,11,2] 0
z[10,11,3] 0
z[10,12,0] 0
z[10,12,1] 0
z[10,12,2] 0
z[10,12,3] 0
z[10,13,0] 0
z[10,13,1] 0
z[10,13,2] 0
z[10,13,3] 0
z[10,14,0] 0
z[10,14,1] 0
z[10,14,2] 0
z[10,14,3] 0
z[10,15,0] 0
z[10,15,1] 0
z[10,15,2] 0
z[10,15,3] 0
z[10,16,0] 0
z[10,16,1] 0
z[10,16,2] 0
z[10,16,3] 0
z[10,17,0] 0
z[10,17,1] 0
z[10,17,2] 0
z[10,17,3] 0
z[10,18,0] 0
z[10,18,1] 0
z[10,18,2] 0
z[10,18,3] 0
z[10,19,0] 0
z[10,19,1] 0
z[10,19,2] 0
z[10,19,3] 0
z[11,0,0] 0
z[11,0,1] 0
z[11,0,2] 0
z[11,0,3] 0
z[11,1,0] 0
z[11,1,1] 0
z[11,1,2] 0
z[11,1,3] 0
z[11,2,0] 8
z[11,2,1] 0
z[11,2,2] 0
z[11,2,3] 0
z[11,3,0] 0
z[11,3,1] 0
z[11,3,2] 0
z[11,3,3] 0
z[11,4,0] 0
z[11,4,1] 0
z[11,4,2] 0
z[11,4,3] 0
z[11,5,0] 0
z[11,5,1] 0
z[11,5,2] 0
z[11,5,3] 0
z[11,6,0] 0
z[11,6,1] 0
z[11,6,2] 0
z[11,6,3] 0
z[11,7,0] 0
z[11,7,1] 0
z[11,7,2] 0
z[11,7,3] 0
z[11,8,0] 0
z[11,8,1] 0
z[11,8,2] 0
z[11,8,3] 0
z[11,9,0] 0
z[11,9,1] 0
z[11,9,2] 0
z[11,9,3] 0
z[11,10,0] 0
z[11,10,1] 0
z[11,10,2] 0
z[11,10,3] 0
z[11,11,0] 0
z[11,11,1] 0
z[11,11,2] 0
z[11,11,3] 0
z[11,12,0] 0
z[11,12,1] 0
z[11,12,2] 0
z[11,12,3] 0
z[11,13,0] 0
z[11,13,1] 0
z[11,13,2] 0
z[11,13,3] 0
z[11,14,0] 0
z[11,14,1] 0
z[11,14,2] 0
z[11,14,3] 0
z[11,15,0] 0
z[11,15,1] 0
z[11,15,2] 0
z[11,15,3] 0
z[11,16,0] 0
z[11,16,1] 0
z[11,16,2] 0
z[11,16,3] 0
z[11,17,0] 0
z[11,17,1] 0
z[11,17,2] 0
z[11,17,3] 0
z[11,18,0] 0
z[11,18,1] 0
z[11,18,2] 0
z[11,18,3] 0
z[11,19,0] 0
z[11,19,1] 0
z[11,19,2] 0
z[11,19,3] 0
z[12,0,0] 0
z[12,0,1] 0
z[12,0,2] 0
z[12,0,3] 0
z[12,1,0] 0
z[12,1,1] 0
z[12,1,2] 0
z[12,1,3] 0
z[12,2,0] 0
z[12,2,1] 0
z[12,2,2] 1
z[12,2,3] 0
z[12,3,0] 0
z[12,3,1] 0
z[12,3,2] 0
z[12,3,3] 0
z[12,4,0] 0
z[12,4,1] 0
z[12,4,2] 0
z[12,4,3] 0
z[12,5,0] 0
z[12,5,1] 0
z[12,5,2] 0
z[12,5,3] 0
z[12,6,0] 0
z[12,6,1] 0
z[12,6,2] 0
z[12,6,3] 0
z[12,7,0] 0
z[12,7,1] 0
z[12,7,2] 0
z[12,7,3] 0
z[12,8,0] 0
z[12,8,1] 0
z[12,8,2] 0
z[12,8,3] 0
z[12,9,0] 0
z[12,9,1] 0
z[12,9,2] 0
z[12,9,3] 0
z[12,10,0] 0
z[12,10,1] 0
z[12,10,2] 0
z[12,10,3] 0
z[12,11,0] 0
z[12,11,1] 0
z[12,11,2] 0
z[12,11,3] 0
z[12,12,0] 0
z[12,12,1] 0
z[12,12,2] 0
z[12,12,3] 0
z[12,13,0] 0
z[12,13,1] 0
z[12,13,2] 0
z[12,13,3] 0
z[12,14,0] 0
z[12,14,1] 0
z[12,14,2] 0
z[12,14,3] 0
z[12,15,0] 0
z[12,15,1] 0
z[12,15,2] 0
z[12,15,3] 0
z[12,16,0] 0
z[12,16,1] 0
z[12,16,2] 0
z[12,16,3] 0
z[12,17,0] 0
z[12,17,1] 0
z[12,17,2] 0
z[12,17,3] 0
z[12,18,0] 0
z[12,18,1] 0
z[12,18,2] 0
z[12,18,3] 0
z[12,19,0] 0
z[12,19,1] 0
z[12,19,2] 0
z[12,19,3] 0
z[13,0,0] 0
z[13,0,1] 0
z[13,0,2] 0
z[13,0,3] 0
z[13,1,0] 0
z[13,1,1] 0
z[13,1,2] 0
z[13,1,3] 0
z[13,2,0] 0
z[13,2,1] 0
z[13,2,2] 1
z[13,2,3] 0
z[13,3,0] 0
z[13,3,1] 0
z[13,3,2] 0
z[13,3,3] 0
z[13,4,0] 0
z[13,4,1] 0
z[13,4,2] 0
z[13,4,3] 0
z[13,5,0] 0
z[13,5,1] 0
z[13,5,2] 0
z[13,5,3] 0
z[13,6,0] 0
z[13,6,1] 0
z[13,6,2] 0
z[13,6,3] 0
z[13,7,0] 0
z[13,7,1] 0
z[13,7,2] 0
z[13,7,3] 0
z[13,8,0] 0
z[13,8,1] 0
z[13,8,2] 0
z[13,8,3] 0
z[13,9,0] 0
z[13,9,1] 0
z[13,9,2] 0
z[13,9,3] 0
z[13,10,0] 0
z[13,10,1] 0
z[13,10,2] 0
z[13,10,3] 0
z[13,11,0] 0
z[13,11,1] 0
z[13,11,2] 0
z[13,11,3] 0
z[13,12,0] 0
z[13,12,1] 0
z[13,12,2] 0
z[13,12,3] 0
z[13,13,0] 0
z[13,13,1] 0
z[13,13,2] 0
z[13,13,3] 0
z[13,14,0] 0
z[13,14,1] 0
z[13,14,2] 0
z[13,14,3] 0
z[13,15,0] 0
z[13,15,1] 0
z[13,15,2] 0
z[13,15,3] 0
z[13,16,0] 0
z[13,16,1] 0
z[13,16,2] 0
z[13,16,3] 0
z[13,17,0] 0
z[13,17,1] 0
z[13,17,2] 0
z[13,17,3] 0
z[13,18,0] 0
z[13,18,1] 0
z[13,18,2] 0
z[13,18,3] 0
z[13,19,0] 0
z[13,19,1] 0
z[13,19,2] 0
z[13,19,3] 0
z[14,0,0] 0
z[14,0,1] 0
z[14,0,2] 0
z[14,0,3] 0
z[14,1,0] 0
z[14,1,1] 0
z[14,1,2] 0
z[14,1,3] 0
z[14,2,0] 2
z[14,2,1] 0
z[14,2,2] 1
z[14,2,3] 0
z[14,3,0] 0
z[14,3,1] 0
z[14,3,2] 0
z[14,3,3] 0
z[14,4,0] 0
z[14,4,1] 0
z[14,4,2] 0
z[14,4,3] 0
z[14,5,0] 0
z[14,5,1] 0
z[14,5,2] 0
z[14,5,3] 0
z[14,6,0] 0
z[14,6,1] 0
z[14,6,2] 0
z[14,6,3] 0
z[14,7,0] 0
z[14,7,1] 0
z[14,7,2] 0
z[14,7,3] 0
z[14,8,0] 0
z[14,8,1] 0
z[14,8,2] 0
z[14,8,3] 0
z[14,9,0] 0
z[14,9,1] 0
z[14,9,2] 0
z[14,9,3] 0
z[14,10,0] 0
z[14,10,1] 0
z[14,10,2] 0
z[14,10,3] 0
z[14,11,0] 0
z[14,11,1] 0
z[14,11,2] 0
z[14,11,3] 0
z[14,12,0] 0
z[14,12,1] 0
z[14,12,2] 0
z[14,12,3] 0
z[14,13,0] 0
z[14,13,1] 0
z[14,13,2] 0
z[14,13,3] 0
z[14,14,0] 0
z[14,14,1] 0
z[14,14,2] 0
z[14,14,3] 0
z[14,15,0] 0
z[14,15,1] 0
z[14,15,2] 0
z[14,15,3] 0
z[14,16,0] 0
z[14,16,1] 0
z[14,16,2] 0
z[14,16,3] 0
z[14,17,0] 0
z[14,17,1] 0
z[14,17,2] 0
z[14,17,3] 0
z[14,18,0] 0
z[14,18,1] 0
z[14,18,2] 0
z[14,18,3] 0
z[14,19,0] 0
z[14,19,1] 0
z[14,19,2] 0
z[14,19,3] 0
z[15,0,0] 0
z[15,0,1] 0
z[15,0,2] 0
z[15,0,3] 0
z[15,1,0] 0
z[15,1,1] 0
z[15,1,2] 0
z[15,1,3] 0
z[15,2,0] 0
z[15,2,1] 0
z[15,2,2] 1
z[15,2,3] 0
z[15,3,0] 0
z[15,3,1] 0
z[15,3,2] 0
z[15,3,3] 0
z[15,4,0] 0
z[15,4,1] 0
z[15,4,2] 0
z[15,4,3] 0
z[15,5,0] 0
z[15,5,1] 0
z[15,5,2] 0
z[15,5,3] 0
z[15,6,0] 0
z[15,6,1] 0
z[15,6,2] 0
z[15,6,3] 0
z[15,7,0] 0
z[15,7,1] 0
z[15,7,2] 0
z[15,7,3] 0
z[15,8,0] 0
z[15,8,1] 0
z[15,8,2] 0
z[15,8,3] 0
z[15,9,0] 0
z[15,9,1] 0
z[15,9,2] 0
z[15,9,3] 0
z[15,10,0] 0
z[15,10,1] 0
z[15,10,2] 0
z[15,10,3] 0
z[15,11,0] 0
z[15,11,1] 0
z[15,11,2] 0
z[15,11,3] 0
z[15,12,0] 0
z[15,12,1] 0
z[15,12,2] 0
z[15,12,3] 0
z[15,13,0] 0
z[15,13,1] 0
z[15,13,2] 0
z[15,13,3] 0
z[15,14,0] 0
z[15,14,1] 0
z[15,14,2] 0
z[15,14,3] 0
z[15,15,0] 0
z[15,15,1] 0
z[15,15,2] 0
z[15,15,3] 0
z[15,16,0] 0
z[15,16,1] 0
z[15,16,2] 0
z[15,16,3] 0
z[15,17,0] 0
z[15,17,1] 0
z[15,17,2] 0
z[15,17,3] 0
z[15,18,0] 0
z[15,18,1] 0
z[15,18,2] 0
z[15,18,3] 0
z[15,19,0] 0
z[15,19,1] 0
z[15,19,2] 0
z[15,19,3] 0
z[16,0,0] 0
z[16,0,1] 0
z[16,0,2] 0
z[16,0,3] 0
z[16,1,0] 0
z[16,1,1] 0
z[16,1,2] 0
z[16,1,3] 0
z[16,2,0] 0
z[16,2,1] 0
z[16,2,2] 0
z[16,2,3] 0
z[16,3,0] 0
z[16,3,1] 0
z[16,3,2] 0
z[16,3,3] 0
z[16,4,0] 0
z[16,4,1] 0
z[16,4,2] 0
z[16,4,3] 0
z[16,5,0] 0
z[16,5,1] 0
z[16,5,2] 0
z[16,5,3] 0
z[16,6,0] 0
z[16,6,1] 0
z[16,6,2] 0
z[16,6,3] 0
z[16,7,0] 0
z[16,7,1] 0
z[16,7,2] 0
z[16,7,3] 0
z[16,8,0] 0
z[16,8,1] 0
z[16,8,2] 0
z[16,8,3] 0
z[16,9,0] 0
z[16,9,1] 0
z[16,9,2] 0
z[16,9,3] 0
z[16,10,0] 0
z[16,10,1] 0
z[16,10,2] 0
z[16,10,3] 0
z[16,11,0] 0
z[16,11,1] 0
z[16,11,2] 0
z[16,11,3] 0
z[16,12,0] 0
z[16,12,1] 0
z[16,12,2] 0
z[16,12,3] 0
z[16,13,0] 0
z[16,13,1] 0
z[16,13,2] 0
z[16,13,3] 0
z[16,14,0] 0
z[16,14,1] 0
z[16,14,2] 0
z[16,14,3] 0
z[16,15,0] 0
z[16,15,1] 0
z[16,15,2] 0
z[16,15,3] 0
z[16,16,0] 0
z[16,16,1] 0
z[16,16,2] 0
z[16,16,3] 0
z[16,17,0] 0
z[16,17,1] 0
z[16,17,2] 0
z[16,17,3] 0
z[16,18,0] 0
z[16,18,1] 0
z[16,18,2] 0
z[16,18,3] 0
z[16,19,0] 0
z[16,19,1] 0
z[16,19,2] 0
z[16,19,3] 0
z[17,0,0] 0
z[17,0,1] 0
z[17,0,2] 0
z[17,0,3] 0
z[17,1,0] 0
z[17,1,1] 0
z[17,1,2] 0
z[17,1,3] 0
z[17,2,0] 0
z[17,2,1] 0
z[17,2,2] 0
z[17,2,3] 0
z[17,3,0] 0
z[17,3,1] 0
z[17,3,2] 0
z[17,3,3] 0
z[17,4,0] 0
z[17,4,1] 0
z[17,4,2] 0
z[17,4,3] 0
z[17,5,0] 0
z[17,5,1] 0
z[17,5,2] 0
z[17,5,3] 0
z[17,6,0] 0
z[17,6,1] 0
z[17,6,2] 0
z[17,6,3] 0
z[17,7,0] 0
z[17,7,1] 0
z[17,7,2] 0
z[17,7,3] 0
z[17,8,0] 0
z[17,8,1] 0
z[17,8,2] 0
z[17,8,3] 0
z[17,9,0] 0
z[17,9,1] 0
z[17,9,2] 0
z[17,9,3] 0
z[17,10,0] 0
z[17,10,1] 0
z[17,10,2] 0
z[17,10,3] 0
z[17,11,0] 0
z[17,11,1] 0
z[17,11,2] 0
z[17,11,3] 0
z[17,12,0] 0
z[17,12,1] 0
z[17,12,2] 0
z[17,12,3] 0
z[17,13,0] 0
z[17,13,1] 0
z[17,13,2] 0
z[17,13,3] 0
z[17,14,0] 0
z[17,14,1] 0
z[17,14,2] 0
z[17,14,3] 0
z[17,15,0] 0
z[17,15,1] 0
z[17,15,2] 0
z[17,15,3] 0
z[17,16,0] 0
z[17,16,1] 0
z[17,16,2] 0
z[17,16,3] 0
z[17,17,0] 0
z[17,17,1] 0
z[17,17,2] 0
z[17,17,3] 0
z[17,18,0] 0
z[17,18,1] 0
z[17,18,2] 0
z[17,18,3] 0
z[17,19,0] 0
z[17,19,1] 0
z[17,19,2] 0
z[17,19,3] 0
z[18,0,0] 0
z[18,0,1] 0
z[18,0,2] 0
z[18,0,3] 0
z[18,1,0] 0
z[18,1,1] 0
z[18,1,2] 0
z[18,1,3] 0
z[18,2,0] 0
z[18,2,1] 0
z[18,2,2] 0
z[18,2,3] 0
z[18,3,0] 0
z[18,3,1] 0
z[18,3,2] 0
z[18,3,3] 0
z[18,4,0] 0
z[18,4,1] 0
z[18,4,2] 0
z[18,4,3] 0
z[18,5,0] 0
z[18,5,1] 0
z[18,5,2] 0
z[18,5,3] 0
z[18,6,0] 0
z[18,6,1] 0
z[18,6,2] 0
z[18,6,3] 0
z[18,7,0] 0
z[18,7,1] 0
z[18,7,2] 0
z[18,7,3] 0
z[18,8,0] 0
z[18,8,1] 0
z[18,8,2] 0
z[18,8,3] 0
z[18,9,0] 0
z[18,9,1] 0
z[18,9,2] 0
z[18,9,3] 0
z[18,10,0] 0
z[18,10,1] 0
z[18,10,2] 0
z[18,10,3] 0
z[18,11,0] 0
z[18,11,1] 0
z[18,11,2] 0
z[18,11,3] 0
z[18,12,0] 0
z[18,12,1] 0
z[18,12,2] 0
z[18,12,3] 0
z[18,13,0] 0
z[18,13,1] 0
z[18,13,2] 0
z[18,13,3] 0
z[18,14,0] 0
z[18,14,1] 0
z[18,14,2] 0
z[18,14,3] 0
z[18,15,0] 0
z[18,15,1] 0
z[18,15,2] 0
z[18,15,3] 0
z[18,16,0] 0
z[18,16,1] 0
z[18,16,2] 0
z[18,16,3] 0
z[18,17,0] 0
z[18,17,1] 0
z[18,17,2] 0
z[18,17,3] 0
z[18,18,0] 0
z[18,18,1] 0
z[18,18,2] 0
z[18,18,3] 0
z[18,19,0] 0
z[18,19,1] 0
z[18,19,2] 0
z[18,19,3] 0
z[19,0,0] 0
z[19,0,1] 0
z[19,0,2] 0
z[19,0,3] 0
z[19,1,0] 0
z[19,1,1] 0
z[19,1,2] 0
z[19,1,3] 0
z[19,2,0] 0
z[19,2,1] 0
z[19,2,2] 0
z[19,2,3] 0
z[19,3,0] 0
z[19,3,1] 0
z[19,3,2] 0
z[19,3,3] 0
z[19,4,0] 0
z[19,4,1] 0
z[19,4,2] 0
z[19,4,3] 0
z[19,5,0] 0
z[19,5,1] 0
z[19,5,2] 0
z[19,5,3] 0
z[19,6,0] 0
z[19,6,1] 0
z[19,6,2] 0
z[19,6,3] 0
z[19,7,0] 0
z[19,7,1] 0
z[19,7,2] 0
z[19,7,3] 0
z[19,8,0] 0
z[19,8,1] 0
z[19,8,2] 0
z[19,8,3] 0
z[19,9,0] 0
z[19,9,1] 0
z[19,9,2] 0
z[19,9,3] 0
z[19,10,0] 0
z[19,10,1] 0
z[19,10,2] 0
z[19,10,3] 0
z[19,11,0] 0
z[19,11,1] 0
z[19,11,2] 0
z[19,11,3] 0
z[19,12,0] 0
z[19,12,1] 0
z[19,12,2] 0
z[19,12,3] 0
z[19,13,0] 0
z[19,13,1] 0
z[19,13,2] 0
z[19,13,3] 0
z[19,14,0] 0
z[19,14,1] 0
z[19,14,2] 0
z[19,14,3] 0
z[19,15,0] 0
z[19,15,1] 0
z[19,15,2] 0
z[19,15,3] 0
z[19,16,0] 0
z[19,16,1] 0
z[19,16,2] 0
z[19,16,3] 0
z[19,17,0] 0
z[19,17,1] 0
z[19,17,2] 0
z[19,17,3] 0
z[19,18,0] 0
z[19,18,1] 0
z[19,18,2] 0
z[19,18,3] 0
z[19,19,0] 0
z[19,19,1] 0
z[19,19,2] 0
z[19,19,3] 0
AC[0] 1
AC[1] 0
AC[2] 1
AC[3] 0
